NAME : instances/diverse-tsp/instance-3.tsp
COMMENT : No Comment
TYPE : TSP
DIMENSION: 50
EDGE_WEIGHT_TYPE : EUC_2D
NODE_COORD_SECTION
1 1097 833 
2 725 1910 
3 1673 1430 
4 1494 783 
5 213 63 
6 280 578 
7 1793 1980 
8 700 883 
9 742 1225 
10 1971 531 
11 1756 106 
12 1364 1268 
13 23 1367 
14 452 1467 
15 706 372 
16 1056 460 
17 1002 763 
18 382 1808 
19 1273 500 
20 98 1349 
21 1876 1476 
22 1004 1148 
23 1602 1540 
24 919 978 
25 27 1731 
26 725 1107 
27 270 796 
28 1923 514 
29 96 672 
30 1871 1506 
31 27 946 
32 1348 1742 
33 26 1801 
34 1497 442 
35 1820 1199 
36 871 112 
37 1924 258 
38 1018 1740 
39 1362 52 
40 193 223 
41 1138 1260 
42 474 1283 
43 1312 1676 
44 335 523 
45 1883 650 
46 643 489 
47 1583 840 
48 1369 1039 
49 132 244 
50 254 1094 
EOF
